0000000000000000
0000000000000000
0000000000000000
0000011111111110
0000011111111110
0000000000111000
0000000000111000
0000000000111000
0000000000111000
0000000000111000
0000000000111000
0000000000111000
0000000000111000
0000000000111000
0000000000111000
0000000000000000
